NAME           C:\Bruker\Hvattum\knapsack\Problems\class4\100-10-18.mps
ROWS
 N  OBJ
 L  CONSTR1
 L  CONSTR2
 L  CONSTR3
 L  CONSTR4
 L  CONSTR5
 L  CONSTR6
 L  CONSTR7
 L  CONSTR8
 L  CONSTR9
 L  CONSTR10
COLUMNS
    INT0001   'MARKER'  'INTORG'
    X1        OBJ       673
    X1        CONSTR1   292
    X1        CONSTR2   936
    X1        CONSTR3   211
    X1        CONSTR4   366
    X1        CONSTR5   845
    X1        CONSTR6   473
    X1        CONSTR7   762
    X1        CONSTR8   430
    X1        CONSTR9   339
    X1        CONSTR10  93
    X2        OBJ       721
    X2        CONSTR1   316
    X2        CONSTR2   647
    X2        CONSTR3   340
    X2        CONSTR4   869
    X2        CONSTR5   840
    X2        CONSTR6   783
    X2        CONSTR7   206
    X2        CONSTR8   105
    X2        CONSTR9   667
    X2        CONSTR10  165
    X3        OBJ       533
    X3        CONSTR1   38
    X3        CONSTR2   61
    X3        CONSTR3   199
    X3        CONSTR4   812
    X3        CONSTR5   58
    X3        CONSTR6   341
    X3        CONSTR7   540
    X3        CONSTR8   147
    X3        CONSTR9   877
    X3        CONSTR10  238
    X4        OBJ       646
    X4        CONSTR1   624
    X4        CONSTR2   240
    X4        CONSTR3   121
    X4        CONSTR4   520
    X4        CONSTR5   872
    X4        CONSTR6   519
    X4        CONSTR7   77
    X4        CONSTR8   172
    X4        CONSTR9   847
    X4        CONSTR10  363
    X5        OBJ       667
    X5        CONSTR1   886
    X5        CONSTR2   690
    X5        CONSTR3   2
    X5        CONSTR4   413
    X5        CONSTR5   706
    X5        CONSTR6   465
    X5        CONSTR7   805
    X5        CONSTR8   841
    X5        CONSTR9   656
    X5        CONSTR10  996
    X6        OBJ       561
    X6        CONSTR1   509
    X6        CONSTR2   675
    X6        CONSTR3   506
    X6        CONSTR4   181
    X6        CONSTR5   269
    X6        CONSTR6   563
    X6        CONSTR7   346
    X6        CONSTR8   793
    X6        CONSTR9   10
    X6        CONSTR10  309
    X7        OBJ       975
    X7        CONSTR1   547
    X7        CONSTR2   190
    X7        CONSTR3   265
    X7        CONSTR4   608
    X7        CONSTR5   459
    X7        CONSTR6   627
    X7        CONSTR7   319
    X7        CONSTR8   913
    X7        CONSTR9   932
    X7        CONSTR10  696
    X8        OBJ       616
    X8        CONSTR1   30
    X8        CONSTR2   850
    X8        CONSTR3   607
    X8        CONSTR4   165
    X8        CONSTR5   531
    X8        CONSTR6   757
    X8        CONSTR7   948
    X8        CONSTR8   271
    X8        CONSTR9   732
    X8        CONSTR10  133
    X9        OBJ       877
    X9        CONSTR1   59
    X9        CONSTR2   905
    X9        CONSTR3   211
    X9        CONSTR4   886
    X9        CONSTR5   125
    X9        CONSTR6   955
    X9        CONSTR7   402
    X9        CONSTR8   505
    X9        CONSTR9   785
    X9        CONSTR10  549
    X10       OBJ       834
    X10       CONSTR1   516
    X10       CONSTR2   545
    X10       CONSTR3   531
    X10       CONSTR4   738
    X10       CONSTR5   735
    X10       CONSTR6   320
    X10       CONSTR7   260
    X10       CONSTR8   762
    X10       CONSTR9   929
    X10       CONSTR10  734
    X11       OBJ       1016
    X11       CONSTR1   853
    X11       CONSTR2   296
    X11       CONSTR3   171
    X11       CONSTR4   611
    X11       CONSTR5   446
    X11       CONSTR6   771
    X11       CONSTR7   920
    X11       CONSTR8   14
    X11       CONSTR9   830
    X11       CONSTR10  769
    X12       OBJ       528
    X12       CONSTR1   527
    X12       CONSTR2   784
    X12       CONSTR3   221
    X12       CONSTR4   385
    X12       CONSTR5   550
    X12       CONSTR6   363
    X12       CONSTR7   334
    X12       CONSTR8   82
    X12       CONSTR9   928
    X12       CONSTR10  501
    X13       OBJ       799
    X13       CONSTR1   868
    X13       CONSTR2   768
    X13       CONSTR3   538
    X13       CONSTR4   909
    X13       CONSTR5   257
    X13       CONSTR6   637
    X13       CONSTR7   904
    X13       CONSTR8   511
    X13       CONSTR9   772
    X13       CONSTR10  940
    X14       OBJ       885
    X14       CONSTR1   417
    X14       CONSTR2   618
    X14       CONSTR3   672
    X14       CONSTR4   18
    X14       CONSTR5   668
    X14       CONSTR6   44
    X14       CONSTR7   958
    X14       CONSTR8   552
    X14       CONSTR9   788
    X14       CONSTR10  631
    X15       OBJ       785
    X15       CONSTR1   435
    X15       CONSTR2   861
    X15       CONSTR3   588
    X15       CONSTR4   46
    X15       CONSTR5   830
    X15       CONSTR6   225
    X15       CONSTR7   534
    X15       CONSTR8   19
    X15       CONSTR9   969
    X15       CONSTR10  439
    X16       OBJ       753
    X16       CONSTR1   277
    X16       CONSTR2   576
    X16       CONSTR3   72
    X16       CONSTR4   583
    X16       CONSTR5   681
    X16       CONSTR6   259
    X16       CONSTR7   901
    X16       CONSTR8   222
    X16       CONSTR9   147
    X16       CONSTR10  943
    X17       OBJ       656
    X17       CONSTR1   764
    X17       CONSTR2   33
    X17       CONSTR3   210
    X17       CONSTR4   855
    X17       CONSTR5   923
    X17       CONSTR6   652
    X17       CONSTR7   805
    X17       CONSTR8   455
    X17       CONSTR9   907
    X17       CONSTR10  903
    X18       OBJ       600
    X18       CONSTR1   418
    X18       CONSTR2   485
    X18       CONSTR3   28
    X18       CONSTR4   430
    X18       CONSTR5   137
    X18       CONSTR6   839
    X18       CONSTR7   122
    X18       CONSTR8   19
    X18       CONSTR9   359
    X18       CONSTR10  270
    X19       OBJ       633
    X19       CONSTR1   124
    X19       CONSTR2   759
    X19       CONSTR3   809
    X19       CONSTR4   239
    X19       CONSTR5   420
    X19       CONSTR6   347
    X19       CONSTR7   641
    X19       CONSTR8   565
    X19       CONSTR9   363
    X19       CONSTR10  764
    X20       OBJ       696
    X20       CONSTR1   356
    X20       CONSTR2   24
    X20       CONSTR3   504
    X20       CONSTR4   751
    X20       CONSTR5   791
    X20       CONSTR6   886
    X20       CONSTR7   202
    X20       CONSTR8   172
    X20       CONSTR9   15
    X20       CONSTR10  823
    X21       OBJ       629
    X21       CONSTR1   809
    X21       CONSTR2   36
    X21       CONSTR3   36
    X21       CONSTR4   252
    X21       CONSTR5   391
    X21       CONSTR6   221
    X21       CONSTR7   933
    X21       CONSTR8   928
    X21       CONSTR9   977
    X21       CONSTR10  428
    X22       OBJ       575
    X22       CONSTR1   763
    X22       CONSTR2   860
    X22       CONSTR3   510
    X22       CONSTR4   315
    X22       CONSTR5   275
    X22       CONSTR6   134
    X22       CONSTR7   309
    X22       CONSTR8   240
    X22       CONSTR9   735
    X22       CONSTR10  696
    X23       OBJ       764
    X23       CONSTR1   674
    X23       CONSTR2   545
    X23       CONSTR3   392
    X23       CONSTR4   593
    X23       CONSTR5   725
    X23       CONSTR6   103
    X23       CONSTR7   588
    X23       CONSTR8   990
    X23       CONSTR9   371
    X23       CONSTR10  753
    X24       OBJ       891
    X24       CONSTR1   722
    X24       CONSTR2   626
    X24       CONSTR3   556
    X24       CONSTR4   873
    X24       CONSTR5   172
    X24       CONSTR6   481
    X24       CONSTR7   209
    X24       CONSTR8   338
    X24       CONSTR9   23
    X24       CONSTR10  692
    X25       OBJ       896
    X25       CONSTR1   155
    X25       CONSTR2   625
    X25       CONSTR3   608
    X25       CONSTR4   62
    X25       CONSTR5   301
    X25       CONSTR6   847
    X25       CONSTR7   844
    X25       CONSTR8   188
    X25       CONSTR9   436
    X25       CONSTR10  114
    X26       OBJ       540
    X26       CONSTR1   932
    X26       CONSTR2   52
    X26       CONSTR3   138
    X26       CONSTR4   843
    X26       CONSTR5   638
    X26       CONSTR6   473
    X26       CONSTR7   314
    X26       CONSTR8   607
    X26       CONSTR9   878
    X26       CONSTR10  291
    X27       OBJ       666
    X27       CONSTR1   397
    X27       CONSTR2   25
    X27       CONSTR3   96
    X27       CONSTR4   821
    X27       CONSTR5   310
    X27       CONSTR6   646
    X27       CONSTR7   582
    X27       CONSTR8   19
    X27       CONSTR9   784
    X27       CONSTR10  33
    X28       OBJ       652
    X28       CONSTR1   84
    X28       CONSTR2   361
    X28       CONSTR3   737
    X28       CONSTR4   176
    X28       CONSTR5   198
    X28       CONSTR6   97
    X28       CONSTR7   831
    X28       CONSTR8   497
    X28       CONSTR9   888
    X28       CONSTR10  760
    X29       OBJ       1091
    X29       CONSTR1   982
    X29       CONSTR2   198
    X29       CONSTR3   988
    X29       CONSTR4   741
    X29       CONSTR5   445
    X29       CONSTR6   255
    X29       CONSTR7   58
    X29       CONSTR8   1000
    X29       CONSTR9   766
    X29       CONSTR10  580
    X30       OBJ       609
    X30       CONSTR1   832
    X30       CONSTR2   718
    X30       CONSTR3   215
    X30       CONSTR4   232
    X30       CONSTR5   726
    X30       CONSTR6   245
    X30       CONSTR7   688
    X30       CONSTR8   531
    X30       CONSTR9   368
    X30       CONSTR10  188
    X31       OBJ       827
    X31       CONSTR1   520
    X31       CONSTR2   314
    X31       CONSTR3   201
    X31       CONSTR4   196
    X31       CONSTR5   227
    X31       CONSTR6   669
    X31       CONSTR7   229
    X31       CONSTR8   955
    X31       CONSTR9   114
    X31       CONSTR10  422
    X32       OBJ       779
    X32       CONSTR1   405
    X32       CONSTR2   744
    X32       CONSTR3   753
    X32       CONSTR4   918
    X32       CONSTR5   421
    X32       CONSTR6   7
    X32       CONSTR7   597
    X32       CONSTR8   133
    X32       CONSTR9   577
    X32       CONSTR10  429
    X33       OBJ       916
    X33       CONSTR1   847
    X33       CONSTR2   719
    X33       CONSTR3   463
    X33       CONSTR4   511
    X33       CONSTR5   912
    X33       CONSTR6   873
    X33       CONSTR7   49
    X33       CONSTR8   955
    X33       CONSTR9   435
    X33       CONSTR10  220
    X34       OBJ       687
    X34       CONSTR1   486
    X34       CONSTR2   71
    X34       CONSTR3   766
    X34       CONSTR4   686
    X34       CONSTR5   641
    X34       CONSTR6   408
    X34       CONSTR7   902
    X34       CONSTR8   379
    X34       CONSTR9   969
    X34       CONSTR10  487
    X35       OBJ       919
    X35       CONSTR1   590
    X35       CONSTR2   243
    X35       CONSTR3   891
    X35       CONSTR4   699
    X35       CONSTR5   578
    X35       CONSTR6   631
    X35       CONSTR7   457
    X35       CONSTR8   674
    X35       CONSTR9   442
    X35       CONSTR10  508
    X36       OBJ       881
    X36       CONSTR1   78
    X36       CONSTR2   503
    X36       CONSTR3   731
    X36       CONSTR4   740
    X36       CONSTR5   969
    X36       CONSTR6   114
    X36       CONSTR7   354
    X36       CONSTR8   242
    X36       CONSTR9   898
    X36       CONSTR10  271
    X37       OBJ       994
    X37       CONSTR1   952
    X37       CONSTR2   73
    X37       CONSTR3   668
    X37       CONSTR4   256
    X37       CONSTR5   762
    X37       CONSTR6   966
    X37       CONSTR7   119
    X37       CONSTR8   950
    X37       CONSTR9   507
    X37       CONSTR10  550
    X38       OBJ       735
    X38       CONSTR1   650
    X38       CONSTR2   406
    X38       CONSTR3   903
    X38       CONSTR4   966
    X38       CONSTR5   369
    X38       CONSTR6   561
    X38       CONSTR7   316
    X38       CONSTR8   347
    X38       CONSTR9   571
    X38       CONSTR10  515
    X39       OBJ       555
    X39       CONSTR1   42
    X39       CONSTR2   625
    X39       CONSTR3   615
    X39       CONSTR4   597
    X39       CONSTR5   43
    X39       CONSTR6   820
    X39       CONSTR7   602
    X39       CONSTR8   56
    X39       CONSTR9   698
    X39       CONSTR10  742
    X40       OBJ       610
    X40       CONSTR1   235
    X40       CONSTR2   621
    X40       CONSTR3   54
    X40       CONSTR4   182
    X40       CONSTR5   120
    X40       CONSTR6   303
    X40       CONSTR7   401
    X40       CONSTR8   445
    X40       CONSTR9   878
    X40       CONSTR10  940
    X41       OBJ       677
    X41       CONSTR1   99
    X41       CONSTR2   612
    X41       CONSTR3   951
    X41       CONSTR4   692
    X41       CONSTR5   824
    X41       CONSTR6   771
    X41       CONSTR7   643
    X41       CONSTR8   519
    X41       CONSTR9   909
    X41       CONSTR10  711
    X42       OBJ       806
    X42       CONSTR1   106
    X42       CONSTR2   331
    X42       CONSTR3   699
    X42       CONSTR4   105
    X42       CONSTR5   554
    X42       CONSTR6   339
    X42       CONSTR7   282
    X42       CONSTR8   746
    X42       CONSTR9   216
    X42       CONSTR10  521
    X43       OBJ       663
    X43       CONSTR1   824
    X43       CONSTR2   101
    X43       CONSTR3   279
    X43       CONSTR4   392
    X43       CONSTR5   996
    X43       CONSTR6   128
    X43       CONSTR7   497
    X43       CONSTR8   198
    X43       CONSTR9   948
    X43       CONSTR10  220
    X44       OBJ       694
    X44       CONSTR1   699
    X44       CONSTR2   644
    X44       CONSTR3   469
    X44       CONSTR4   128
    X44       CONSTR5   861
    X44       CONSTR6   376
    X44       CONSTR7   583
    X44       CONSTR8   306
    X44       CONSTR9   807
    X44       CONSTR10  859
    X45       OBJ       547
    X45       CONSTR1   809
    X45       CONSTR2   348
    X45       CONSTR3   401
    X45       CONSTR4   615
    X45       CONSTR5   30
    X45       CONSTR6   259
    X45       CONSTR7   730
    X45       CONSTR8   166
    X45       CONSTR9   120
    X45       CONSTR10  434
    X46       OBJ       967
    X46       CONSTR1   856
    X46       CONSTR2   106
    X46       CONSTR3   554
    X46       CONSTR4   251
    X46       CONSTR5   240
    X46       CONSTR6   821
    X46       CONSTR7   4
    X46       CONSTR8   945
    X46       CONSTR9   611
    X46       CONSTR10  311
    X47       OBJ       810
    X47       CONSTR1   703
    X47       CONSTR2   438
    X47       CONSTR3   950
    X47       CONSTR4   503
    X47       CONSTR5   438
    X47       CONSTR6   28
    X47       CONSTR7   534
    X47       CONSTR8   49
    X47       CONSTR9   955
    X47       CONSTR10  114
    X48       OBJ       515
    X48       CONSTR1   461
    X48       CONSTR2   247
    X48       CONSTR3   393
    X48       CONSTR4   963
    X48       CONSTR5   767
    X48       CONSTR6   112
    X48       CONSTR7   307
    X48       CONSTR8   271
    X48       CONSTR9   557
    X48       CONSTR10  111
    X49       OBJ       896
    X49       CONSTR1   256
    X49       CONSTR2   230
    X49       CONSTR3   323
    X49       CONSTR4   785
    X49       CONSTR5   998
    X49       CONSTR6   681
    X49       CONSTR7   79
    X49       CONSTR8   148
    X49       CONSTR9   337
    X49       CONSTR10  353
    X50       OBJ       730
    X50       CONSTR1   770
    X50       CONSTR2   818
    X50       CONSTR3   570
    X50       CONSTR4   515
    X50       CONSTR5   262
    X50       CONSTR6   275
    X50       CONSTR7   484
    X50       CONSTR8   616
    X50       CONSTR9   743
    X50       CONSTR10  873
    X51       OBJ       573
    X51       CONSTR1   156
    X51       CONSTR2   709
    X51       CONSTR3   591
    X51       CONSTR4   522
    X51       CONSTR5   641
    X51       CONSTR6   884
    X51       CONSTR7   359
    X51       CONSTR8   678
    X51       CONSTR9   588
    X51       CONSTR10  175
    X52       OBJ       618
    X52       CONSTR1   291
    X52       CONSTR2   612
    X52       CONSTR3   977
    X52       CONSTR4   381
    X52       CONSTR5   727
    X52       CONSTR6   306
    X52       CONSTR7   396
    X52       CONSTR8   171
    X52       CONSTR9   607
    X52       CONSTR10  275
    X53       OBJ       567
    X53       CONSTR1   366
    X53       CONSTR2   851
    X53       CONSTR3   532
    X53       CONSTR4   979
    X53       CONSTR5   991
    X53       CONSTR6   792
    X53       CONSTR7   340
    X53       CONSTR8   30
    X53       CONSTR9   522
    X53       CONSTR10  11
    X54       OBJ       928
    X54       CONSTR1   634
    X54       CONSTR2   217
    X54       CONSTR3   60
    X54       CONSTR4   220
    X54       CONSTR5   886
    X54       CONSTR6   171
    X54       CONSTR7   870
    X54       CONSTR8   576
    X54       CONSTR9   469
    X54       CONSTR10  491
    X55       OBJ       996
    X55       CONSTR1   701
    X55       CONSTR2   770
    X55       CONSTR3   326
    X55       CONSTR4   592
    X55       CONSTR5   303
    X55       CONSTR6   917
    X55       CONSTR7   668
    X55       CONSTR8   564
    X55       CONSTR9   395
    X55       CONSTR10  658
    X56       OBJ       822
    X56       CONSTR1   760
    X56       CONSTR2   25
    X56       CONSTR3   235
    X56       CONSTR4   948
    X56       CONSTR5   7
    X56       CONSTR6   141
    X56       CONSTR7   364
    X56       CONSTR8   281
    X56       CONSTR9   661
    X56       CONSTR10  730
    X57       OBJ       607
    X57       CONSTR1   24
    X57       CONSTR2   302
    X57       CONSTR3   547
    X57       CONSTR4   578
    X57       CONSTR5   675
    X57       CONSTR6   79
    X57       CONSTR7   947
    X57       CONSTR8   518
    X57       CONSTR9   89
    X57       CONSTR10  370
    X58       OBJ       669
    X58       CONSTR1   910
    X58       CONSTR2   402
    X58       CONSTR3   326
    X58       CONSTR4   565
    X58       CONSTR5   356
    X58       CONSTR6   878
    X58       CONSTR7   458
    X58       CONSTR8   336
    X58       CONSTR9   558
    X58       CONSTR10  990
    X59       OBJ       471
    X59       CONSTR1   818
    X59       CONSTR2   370
    X59       CONSTR3   169
    X59       CONSTR4   496
    X59       CONSTR5   795
    X59       CONSTR6   317
    X59       CONSTR7   707
    X59       CONSTR8   192
    X59       CONSTR9   348
    X59       CONSTR10  204
    X60       OBJ       444
    X60       CONSTR1   656
    X60       CONSTR2   87
    X60       CONSTR3   424
    X60       CONSTR4   16
    X60       CONSTR5   594
    X60       CONSTR6   704
    X60       CONSTR7   469
    X60       CONSTR8   361
    X60       CONSTR9   555
    X60       CONSTR10  485
    X61       OBJ       835
    X61       CONSTR1   969
    X61       CONSTR2   965
    X61       CONSTR3   203
    X61       CONSTR4   318
    X61       CONSTR5   590
    X61       CONSTR6   278
    X61       CONSTR7   834
    X61       CONSTR8   507
    X61       CONSTR9   428
    X61       CONSTR10  833
    X62       OBJ       987
    X62       CONSTR1   543
    X62       CONSTR2   766
    X62       CONSTR3   976
    X62       CONSTR4   944
    X62       CONSTR5   545
    X62       CONSTR6   820
    X62       CONSTR7   195
    X62       CONSTR8   912
    X62       CONSTR9   732
    X62       CONSTR10  248
    X63       OBJ       544
    X63       CONSTR1   820
    X63       CONSTR2   853
    X63       CONSTR3   45
    X63       CONSTR4   98
    X63       CONSTR5   433
    X63       CONSTR6   15
    X63       CONSTR7   638
    X63       CONSTR8   211
    X63       CONSTR9   48
    X63       CONSTR10  614
    X64       OBJ       720
    X64       CONSTR1   444
    X64       CONSTR2   858
    X64       CONSTR3   992
    X64       CONSTR4   900
    X64       CONSTR5   39
    X64       CONSTR6   28
    X64       CONSTR7   223
    X64       CONSTR8   533
    X64       CONSTR9   398
    X64       CONSTR10  260
    X65       OBJ       827
    X65       CONSTR1   187
    X65       CONSTR2   466
    X65       CONSTR3   466
    X65       CONSTR4   633
    X65       CONSTR5   136
    X65       CONSTR6   737
    X65       CONSTR7   555
    X65       CONSTR8   814
    X65       CONSTR9   77
    X65       CONSTR10  80
    X66       OBJ       852
    X66       CONSTR1   274
    X66       CONSTR2   950
    X66       CONSTR3   391
    X66       CONSTR4   941
    X66       CONSTR5   648
    X66       CONSTR6   470
    X66       CONSTR7   338
    X66       CONSTR8   208
    X66       CONSTR9   337
    X66       CONSTR10  866
    X67       OBJ       939
    X67       CONSTR1   458
    X67       CONSTR2   648
    X67       CONSTR3   656
    X67       CONSTR4   168
    X67       CONSTR5   146
    X67       CONSTR6   917
    X67       CONSTR7   678
    X67       CONSTR8   963
    X67       CONSTR9   300
    X67       CONSTR10  649
    X68       OBJ       797
    X68       CONSTR1   386
    X68       CONSTR2   28
    X68       CONSTR3   562
    X68       CONSTR4   659
    X68       CONSTR5   710
    X68       CONSTR6   838
    X68       CONSTR7   471
    X68       CONSTR8   279
    X68       CONSTR9   180
    X68       CONSTR10  113
    X69       OBJ       569
    X69       CONSTR1   734
    X69       CONSTR2   86
    X69       CONSTR3   808
    X69       CONSTR4   320
    X69       CONSTR5   97
    X69       CONSTR6   207
    X69       CONSTR7   175
    X69       CONSTR8   620
    X69       CONSTR9   202
    X69       CONSTR10  471
    X70       OBJ       456
    X70       CONSTR1   489
    X70       CONSTR2   401
    X70       CONSTR3   75
    X70       CONSTR4   172
    X70       CONSTR5   914
    X70       CONSTR6   706
    X70       CONSTR7   330
    X70       CONSTR8   142
    X70       CONSTR9   500
    X70       CONSTR10  832
    X71       OBJ       819
    X71       CONSTR1   648
    X71       CONSTR2   799
    X71       CONSTR3   91
    X71       CONSTR4   91
    X71       CONSTR5   862
    X71       CONSTR6   605
    X71       CONSTR7   621
    X71       CONSTR8   260
    X71       CONSTR9   928
    X71       CONSTR10  391
    X72       OBJ       464
    X72       CONSTR1   199
    X72       CONSTR2   445
    X72       CONSTR3   897
    X72       CONSTR4   625
    X72       CONSTR5   7
    X72       CONSTR6   770
    X72       CONSTR7   271
    X72       CONSTR8   35
    X72       CONSTR9   797
    X72       CONSTR10  375
    X73       OBJ       716
    X73       CONSTR1   67
    X73       CONSTR2   250
    X73       CONSTR3   87
    X73       CONSTR4   555
    X73       CONSTR5   895
    X73       CONSTR6   536
    X73       CONSTR7   110
    X73       CONSTR8   986
    X73       CONSTR9   137
    X73       CONSTR10  348
    X74       OBJ       949
    X74       CONSTR1   767
    X74       CONSTR2   819
    X74       CONSTR3   481
    X74       CONSTR4   285
    X74       CONSTR5   673
    X74       CONSTR6   481
    X74       CONSTR7   465
    X74       CONSTR8   1
    X74       CONSTR9   343
    X74       CONSTR10  834
    X75       OBJ       995
    X75       CONSTR1   654
    X75       CONSTR2   880
    X75       CONSTR3   571
    X75       CONSTR4   952
    X75       CONSTR5   184
    X75       CONSTR6   575
    X75       CONSTR7   591
    X75       CONSTR8   205
    X75       CONSTR9   109
    X75       CONSTR10  485
    X76       OBJ       697
    X76       CONSTR1   4
    X76       CONSTR2   459
    X76       CONSTR3   480
    X76       CONSTR4   505
    X76       CONSTR5   420
    X76       CONSTR6   494
    X76       CONSTR7   680
    X76       CONSTR8   80
    X76       CONSTR9   196
    X76       CONSTR10  677
    X77       OBJ       632
    X77       CONSTR1   472
    X77       CONSTR2   149
    X77       CONSTR3   895
    X77       CONSTR4   972
    X77       CONSTR5   689
    X77       CONSTR6   650
    X77       CONSTR7   879
    X77       CONSTR8   76
    X77       CONSTR9   558
    X77       CONSTR10  108
    X78       OBJ       992
    X78       CONSTR1   517
    X78       CONSTR2   912
    X78       CONSTR3   440
    X78       CONSTR4   679
    X78       CONSTR5   143
    X78       CONSTR6   656
    X78       CONSTR7   819
    X78       CONSTR8   649
    X78       CONSTR9   553
    X78       CONSTR10  213
    X79       OBJ       445
    X79       CONSTR1   865
    X79       CONSTR2   568
    X79       CONSTR3   11
    X79       CONSTR4   799
    X79       CONSTR5   23
    X79       CONSTR6   491
    X79       CONSTR7   326
    X79       CONSTR8   250
    X79       CONSTR9   379
    X79       CONSTR10  453
    X80       OBJ       878
    X80       CONSTR1   865
    X80       CONSTR2   800
    X80       CONSTR3   84
    X80       CONSTR4   776
    X80       CONSTR5   509
    X80       CONSTR6   331
    X80       CONSTR7   207
    X80       CONSTR8   957
    X80       CONSTR9   803
    X80       CONSTR10  10
    X81       OBJ       664
    X81       CONSTR1   138
    X81       CONSTR2   900
    X81       CONSTR3   246
    X81       CONSTR4   34
    X81       CONSTR5   33
    X81       CONSTR6   403
    X81       CONSTR7   103
    X81       CONSTR8   43
    X81       CONSTR9   396
    X81       CONSTR10  867
    X82       OBJ       727
    X82       CONSTR1   815
    X82       CONSTR2   939
    X82       CONSTR3   180
    X82       CONSTR4   730
    X82       CONSTR5   316
    X82       CONSTR6   569
    X82       CONSTR7   374
    X82       CONSTR8   51
    X82       CONSTR9   949
    X82       CONSTR10  657
    X83       OBJ       566
    X83       CONSTR1   564
    X83       CONSTR2   279
    X83       CONSTR3   635
    X83       CONSTR4   743
    X83       CONSTR5   354
    X83       CONSTR6   253
    X83       CONSTR7   528
    X83       CONSTR8   621
    X83       CONSTR9   85
    X83       CONSTR10  581
    X84       OBJ       476
    X84       CONSTR1   12
    X84       CONSTR2   473
    X84       CONSTR3   780
    X84       CONSTR4   387
    X84       CONSTR5   29
    X84       CONSTR6   333
    X84       CONSTR7   907
    X84       CONSTR8   317
    X84       CONSTR9   329
    X84       CONSTR10  448
    X85       OBJ       743
    X85       CONSTR1   963
    X85       CONSTR2   981
    X85       CONSTR3   274
    X85       CONSTR4   739
    X85       CONSTR5   148
    X85       CONSTR6   259
    X85       CONSTR7   92
    X85       CONSTR8   554
    X85       CONSTR9   60
    X85       CONSTR10  45
    X86       OBJ       764
    X86       CONSTR1   742
    X86       CONSTR2   952
    X86       CONSTR3   364
    X86       CONSTR4   670
    X86       CONSTR5   266
    X86       CONSTR6   158
    X86       CONSTR7   814
    X86       CONSTR8   77
    X86       CONSTR9   599
    X86       CONSTR10  736
    X87       OBJ       863
    X87       CONSTR1   108
    X87       CONSTR2   138
    X87       CONSTR3   230
    X87       CONSTR4   371
    X87       CONSTR5   825
    X87       CONSTR6   686
    X87       CONSTR7   577
    X87       CONSTR8   707
    X87       CONSTR9   342
    X87       CONSTR10  873
    X88       OBJ       652
    X88       CONSTR1   911
    X88       CONSTR2   504
    X88       CONSTR3   177
    X88       CONSTR4   478
    X88       CONSTR5   191
    X88       CONSTR6   885
    X88       CONSTR7   842
    X88       CONSTR8   74
    X88       CONSTR9   205
    X88       CONSTR10  545
    X89       OBJ       817
    X89       CONSTR1   129
    X89       CONSTR2   186
    X89       CONSTR3   935
    X89       CONSTR4   546
    X89       CONSTR5   272
    X89       CONSTR6   297
    X89       CONSTR7   911
    X89       CONSTR8   31
    X89       CONSTR9   321
    X89       CONSTR10  584
    X90       OBJ       1003
    X90       CONSTR1   555
    X90       CONSTR2   27
    X90       CONSTR3   884
    X90       CONSTR4   864
    X90       CONSTR5   425
    X90       CONSTR6   571
    X90       CONSTR7   550
    X90       CONSTR8   37
    X90       CONSTR9   970
    X90       CONSTR10  892
    X91       OBJ       1141
    X91       CONSTR1   950
    X91       CONSTR2   788
    X91       CONSTR3   695
    X91       CONSTR4   299
    X91       CONSTR5   964
    X91       CONSTR6   889
    X91       CONSTR7   920
    X91       CONSTR8   56
    X91       CONSTR9   808
    X91       CONSTR10  401
    X92       OBJ       1023
    X92       CONSTR1   845
    X92       CONSTR2   134
    X92       CONSTR3   901
    X92       CONSTR4   655
    X92       CONSTR5   323
    X92       CONSTR6   746
    X92       CONSTR7   926
    X92       CONSTR8   251
    X92       CONSTR9   263
    X92       CONSTR10  426
    X93       OBJ       899
    X93       CONSTR1   618
    X93       CONSTR2   14
    X93       CONSTR3   799
    X93       CONSTR4   22
    X93       CONSTR5   626
    X93       CONSTR6   482
    X93       CONSTR7   251
    X93       CONSTR8   370
    X93       CONSTR9   632
    X93       CONSTR10  879
    X94       OBJ       690
    X94       CONSTR1   872
    X94       CONSTR2   751
    X94       CONSTR3   713
    X94       CONSTR4   151
    X94       CONSTR5   913
    X94       CONSTR6   640
    X94       CONSTR7   379
    X94       CONSTR8   746
    X94       CONSTR9   714
    X94       CONSTR10  829
    X95       OBJ       744
    X95       CONSTR1   370
    X95       CONSTR2   44
    X95       CONSTR3   505
    X95       CONSTR4   98
    X95       CONSTR5   916
    X95       CONSTR6   587
    X95       CONSTR7   579
    X95       CONSTR8   938
    X95       CONSTR9   584
    X95       CONSTR10  722
    X96       OBJ       780
    X96       CONSTR1   258
    X96       CONSTR2   954
    X96       CONSTR3   877
    X96       CONSTR4   14
    X96       CONSTR5   374
    X96       CONSTR6   156
    X96       CONSTR7   931
    X96       CONSTR8   790
    X96       CONSTR9   771
    X96       CONSTR10  890
    X97       OBJ       820
    X97       CONSTR1   56
    X97       CONSTR2   713
    X97       CONSTR3   148
    X97       CONSTR4   278
    X97       CONSTR5   740
    X97       CONSTR6   193
    X97       CONSTR7   72
    X97       CONSTR8   527
    X97       CONSTR9   432
    X97       CONSTR10  623
    X98       OBJ       964
    X98       CONSTR1   775
    X98       CONSTR2   334
    X98       CONSTR3   864
    X98       CONSTR4   370
    X98       CONSTR5   868
    X98       CONSTR6   969
    X98       CONSTR7   921
    X98       CONSTR8   663
    X98       CONSTR9   458
    X98       CONSTR10  325
    X99       OBJ       392
    X99       CONSTR1   332
    X99       CONSTR2   229
    X99       CONSTR3   89
    X99       CONSTR4   363
    X99       CONSTR5   603
    X99       CONSTR6   879
    X99       CONSTR7   329
    X99       CONSTR8   270
    X99       CONSTR9   747
    X99       CONSTR10  70
    X100      OBJ       608
    X100      CONSTR1   582
    X100      CONSTR2   448
    X100      CONSTR3   878
    X100      CONSTR4   278
    X100      CONSTR5   397
    X100      CONSTR6   333
    X100      CONSTR7   45
    X100      CONSTR8   140
    X100      CONSTR9   965
    X100      CONSTR10  768
    INT0001   'MARKER'  'INTEND'
RHS
    RHS10001  CONSTR1   25934
    RHS10001  CONSTR2   24709
    RHS10001  CONSTR3   23644
    RHS10001  CONSTR4   25386
    RHS10001  CONSTR5   25279
    RHS10001  CONSTR6   24776
    RHS10001  CONSTR7   25273
    RHS10001  CONSTR8   20823
    RHS10001  CONSTR9   27399
    RHS10001  CONSTR10  25398
BOUNDS
 BV BND       X1        .00
 BV BND       X2        .00
 BV BND       X3        .00
 BV BND       X4        .00
 BV BND       X5        .00
 BV BND       X6        .00
 BV BND       X7        .00
 BV BND       X8        .00
 BV BND       X9        .00
 BV BND       X10       .00
 BV BND       X11       .00
 BV BND       X12       .00
 BV BND       X13       .00
 BV BND       X14       .00
 BV BND       X15       .00
 BV BND       X16       .00
 BV BND       X17       .00
 BV BND       X18       .00
 BV BND       X19       .00
 BV BND       X20       .00
 BV BND       X21       .00
 BV BND       X22       .00
 BV BND       X23       .00
 BV BND       X24       .00
 BV BND       X25       .00
 BV BND       X26       .00
 BV BND       X27       .00
 BV BND       X28       .00
 BV BND       X29       .00
 BV BND       X30       .00
 BV BND       X31       .00
 BV BND       X32       .00
 BV BND       X33       .00
 BV BND       X34       .00
 BV BND       X35       .00
 BV BND       X36       .00
 BV BND       X37       .00
 BV BND       X38       .00
 BV BND       X39       .00
 BV BND       X40       .00
 BV BND       X41       .00
 BV BND       X42       .00
 BV BND       X43       .00
 BV BND       X44       .00
 BV BND       X45       .00
 BV BND       X46       .00
 BV BND       X47       .00
 BV BND       X48       .00
 BV BND       X49       .00
 BV BND       X50       .00
 BV BND       X51       .00
 BV BND       X52       .00
 BV BND       X53       .00
 BV BND       X54       .00
 BV BND       X55       .00
 BV BND       X56       .00
 BV BND       X57       .00
 BV BND       X58       .00
 BV BND       X59       .00
 BV BND       X60       .00
 BV BND       X61       .00
 BV BND       X62       .00
 BV BND       X63       .00
 BV BND       X64       .00
 BV BND       X65       .00
 BV BND       X66       .00
 BV BND       X67       .00
 BV BND       X68       .00
 BV BND       X69       .00
 BV BND       X70       .00
 BV BND       X71       .00
 BV BND       X72       .00
 BV BND       X73       .00
 BV BND       X74       .00
 BV BND       X75       .00
 BV BND       X76       .00
 BV BND       X77       .00
 BV BND       X78       .00
 BV BND       X79       .00
 BV BND       X80       .00
 BV BND       X81       .00
 BV BND       X82       .00
 BV BND       X83       .00
 BV BND       X84       .00
 BV BND       X85       .00
 BV BND       X86       .00
 BV BND       X87       .00
 BV BND       X88       .00
 BV BND       X89       .00
 BV BND       X90       .00
 BV BND       X91       .00
 BV BND       X92       .00
 BV BND       X93       .00
 BV BND       X94       .00
 BV BND       X95       .00
 BV BND       X96       .00
 BV BND       X97       .00
 BV BND       X98       .00
 BV BND       X99       .00
 BV BND       X100      .00
ENDATA
